c Created with the Wolfram Language : www.wolfram.com
c 
p edge 60 374
e 1 4
e 3 4
e 1 5
e 2 5
e 3 5
e 3 7
e 5 8
e 6 8
e 7 8
e 6 9
e 1 10
e 4 11
e 8 12
e 11 13
e 5 14
e 7 14
e 4 15
e 7 15
e 10 15
e 12 15
e 6 16
e 7 16
e 12 16
e 15 16
e 2 17
e 10 17
e 13 17
e 6 18
e 8 18
e 11 18
e 16 18
e 2 19
e 5 19
e 9 19
e 13 19
e 4 20
e 9 20
e 4 21
e 10 21
e 18 21
e 20 22
e 21 22
e 10 23
e 15 23
e 2 24
e 3 24
e 7 24
e 10 24
e 11 24
e 13 24
e 17 24
e 21 24
e 15 25
e 19 25
e 8 26
e 22 26
e 23 26
e 24 26
e 4 27
e 9 27
e 11 27
e 19 27
e 20 27
e 22 27
e 3 28
e 7 28
e 17 28
e 18 28
e 21 28
e 25 28
e 26 28
e 7 29
e 8 29
e 10 29
e 26 29
e 8 30
e 12 30
e 17 30
e 29 30
e 8 31
e 9 31
e 16 31
e 1 32
e 2 32
e 15 32
e 18 32
e 23 32
e 24 32
e 29 32
e 30 32
e 4 33
e 7 33
e 9 33
e 12 33
e 22 33
e 24 33
e 25 33
e 26 33
e 28 33
e 8 34
e 9 34
e 15 34
e 17 34
e 18 34
e 25 34
e 3 35
e 4 35
e 8 35
e 13 35
e 15 35
e 19 35
e 22 35
e 28 35
e 29 35
e 32 35
e 2 36
e 9 36
e 32 36
e 6 37
e 7 37
e 10 37
e 20 37
e 25 37
e 29 37
e 2 38
e 3 38
e 4 38
e 18 38
e 22 38
e 28 38
e 36 38
e 37 38
e 10 39
e 12 39
e 13 39
e 28 39
e 29 39
e 35 39
e 8 40
e 10 40
e 15 40
e 18 40
e 20 40
e 22 40
e 28 40
e 30 40
e 31 40
e 39 40
e 1 41
e 4 41
e 5 41
e 6 41
e 11 41
e 22 41
e 25 41
e 26 41
e 29 41
e 34 41
e 37 41
e 40 41
e 1 42
e 14 42
e 16 42
e 19 42
e 22 42
e 23 42
e 26 42
e 40 42
e 1 43
e 7 43
e 14 43
e 19 43
e 20 43
e 22 43
e 25 43
e 26 43
e 33 43
e 38 43
e 39 43
e 1 44
e 8 44
e 17 44
e 26 44
e 28 44
e 31 44
e 34 44
e 36 44
e 7 45
e 9 45
e 10 45
e 11 45
e 12 45
e 14 45
e 17 45
e 22 45
e 23 45
e 26 45
e 27 45
e 29 45
e 2 46
e 15 46
e 20 46
e 25 46
e 26 46
e 31 46
e 35 46
e 37 46
e 40 46
e 5 47
e 6 47
e 11 47
e 21 47
e 23 47
e 24 47
e 30 47
e 31 47
e 33 47
e 35 47
e 38 47
e 42 47
e 2 48
e 6 48
e 12 48
e 16 48
e 21 48
e 27 48
e 29 48
e 32 48
e 34 48
e 40 48
e 46 48
e 5 49
e 9 49
e 13 49
e 14 49
e 18 49
e 23 49
e 38 49
e 39 49
e 40 49
e 43 49
e 3 50
e 9 50
e 10 50
e 12 50
e 13 50
e 16 50
e 20 50
e 22 50
e 27 50
e 47 50
e 49 50
e 4 51
e 6 51
e 7 51
e 23 51
e 24 51
e 26 51
e 27 51
e 39 51
e 41 51
e 42 51
e 43 51
e 44 51
e 48 51
e 49 51
e 1 52
e 5 52
e 8 52
e 9 52
e 30 52
e 31 52
e 41 52
e 45 52
e 48 52
e 1 53
e 2 53
e 6 53
e 9 53
e 13 53
e 16 53
e 18 53
e 24 53
e 30 53
e 32 53
e 38 53
e 41 53
e 45 53
e 51 53
e 1 54
e 8 54
e 11 54
e 12 54
e 24 54
e 25 54
e 26 54
e 27 54
e 28 54
e 29 54
e 37 54
e 46 54
e 50 54
e 53 54
e 2 55
e 4 55
e 6 55
e 12 55
e 13 55
e 23 55
e 29 55
e 30 55
e 31 55
e 38 55
e 43 55
e 49 55
e 50 55
e 2 56
e 5 56
e 8 56
e 17 56
e 20 56
e 27 56
e 31 56
e 35 56
e 36 56
e 48 56
e 4 57
e 11 57
e 12 57
e 14 57
e 24 57
e 25 57
e 36 57
e 41 57
e 44 57
e 46 57
e 53 57
e 3 58
e 10 58
e 14 58
e 20 58
e 21 58
e 26 58
e 35 58
e 40 58
e 46 58
e 50 58
e 52 58
e 53 58
e 55 58
e 2 59
e 3 59
e 8 59
e 15 59
e 17 59
e 22 59
e 25 59
e 36 59
e 39 59
e 41 59
e 42 59
e 53 59
e 56 59
e 57 59
e 10 60
e 25 60
e 32 60
e 39 60
e 40 60
e 43 60
e 44 60
e 46 60
e 53 60
e 54 60
